Route 1: 0 78 59 85 65 3 94 9 2 67 0
Route 2: 0 16 60 86 82 44 81 52 0
Route 3: 0 63 75 50 93 1 91 0
Route 4: 0 30 56 96 97 92 100 17 64 6 83 95 62 0
Route 5: 0 57 8 22 19 39 77 37 0
Route 6: 0 11 15 28 48 89 58 79 13 36 69 18 34 0
Route 7: 0 5 33 90 10 20 74 55 0
Route 8: 0 45 49 40 42 23 32 43 0
Route 9: 0 38 84 29 14 54 88 46 53 0
Route 10: 0 51 41 68 87 7 21 12 76 0
Route 11: 0 99 27 80 66 98 31 4 35 72 47 0
Route 12: 0 25 71 26 61 24 70 73 0
